# Objective value = -140
P_0_0 0
N_0_0 0
P_0_1 0
N_0_1 0
P_0_2 0
N_0_2 0
P_0_3 0
N_0_3 0
P_0_4 0
N_0_4 0
P_0_5 0
N_0_5 0
P_0_6 0
N_0_6 0
P_0_7 0
N_0_7 0
P_0_8 0
N_0_8 0
P_0_9 0
N_0_9 0
P_0_10 0
N_0_10 0
P_0_11 0
N_0_11 1
P_0_12 0
N_0_12 0
P_0_13 1
N_0_13 0
P_1_0 0
N_1_0 0
P_1_1 0
N_1_1 0
P_1_2 0
N_1_2 0
P_1_3 1
N_1_3 1
P_1_4 0
N_1_4 0
P_1_5 0
N_1_5 0
P_1_6 0
N_1_6 0
P_1_7 0
N_1_7 0
P_1_8 0
N_1_8 0
P_1_9 0
N_1_9 0
P_1_10 0
N_1_10 0
P_1_11 0
N_1_11 0
P_1_12 0
N_1_12 0
P_1_13 0
N_1_13 0
P_2_0 0
N_2_0 1
P_2_1 1
N_2_1 0
P_2_2 0
N_2_2 0
P_2_3 0
N_2_3 0
P_2_4 0
N_2_4 0
P_2_5 0
N_2_5 0
P_2_6 0
N_2_6 0
P_2_7 0
N_2_7 0
P_2_8 0
N_2_8 0
P_2_9 0
N_2_9 0
P_2_10 0
N_2_10 0
P_2_11 0
N_2_11 0
P_2_12 0
N_2_12 0
P_2_13 0
N_2_13 0
P_3_0 0
N_3_0 0
P_3_1 0
N_3_1 0
P_3_2 0
N_3_2 0
P_3_3 0
N_3_3 0
P_3_4 1
N_3_4 0
P_3_5 0
N_3_5 0
P_3_6 0
N_3_6 0
P_3_7 0
N_3_7 0
P_3_8 0
N_3_8 0
P_3_9 0
N_3_9 0
P_3_10 0
N_3_10 1
P_3_11 0
N_3_11 0
P_3_12 0
N_3_12 0
P_3_13 0
N_3_13 0
P_4_0 0
N_4_0 0
P_4_1 0
N_4_1 0
P_4_2 0
N_4_2 0
P_4_3 0
N_4_3 0
P_4_4 0
N_4_4 0
P_4_5 0
N_4_5 0
P_4_6 0
N_4_6 0
P_4_7 0
N_4_7 0
P_4_8 0
N_4_8 0
P_4_9 1
N_4_9 0
P_4_10 0
N_4_10 0
P_4_11 0
N_4_11 0
P_4_12 0
N_4_12 1
P_4_13 0
N_4_13 0
P_5_0 1
N_5_0 0
P_5_1 0
N_5_1 0
P_5_2 0
N_5_2 0
P_5_3 0
N_5_3 0
P_5_4 0
N_5_4 0
P_5_5 0
N_5_5 0
P_5_6 0
N_5_6 1
P_5_7 0
N_5_7 0
P_5_8 0
N_5_8 0
P_5_9 0
N_5_9 0
P_5_10 0
N_5_10 0
P_5_11 0
N_5_11 0
P_5_12 0
N_5_12 0
P_5_13 0
N_5_13 0
P_6_0 0
N_6_0 0
P_6_1 0
N_6_1 0
P_6_2 0
N_6_2 0
P_6_3 0
N_6_3 0
P_6_4 0
N_6_4 0
P_6_5 0
N_6_5 0
P_6_6 0
N_6_6 0
P_6_7 0
N_6_7 0
P_6_8 0
N_6_8 0
P_6_9 0
N_6_9 0
P_6_10 0
N_6_10 0
P_6_11 1
N_6_11 0
P_6_12 0
N_6_12 0
P_6_13 0
N_6_13 1
P_7_0 0
N_7_0 0
P_7_1 0
N_7_1 0
P_7_2 1
N_7_2 0
P_7_3 0
N_7_3 0
P_7_4 0
N_7_4 0
P_7_5 0
N_7_5 0
P_7_6 0
N_7_6 0
P_7_7 0
N_7_7 0
P_7_8 0
N_7_8 0
P_7_9 0
N_7_9 1
P_7_10 0
N_7_10 0
P_7_11 0
N_7_11 0
P_7_12 0
N_7_12 0
P_7_13 0
N_7_13 0
P_8_0 0
N_8_0 0
P_8_1 0
N_8_1 1
P_8_2 0
N_8_2 0
P_8_3 0
N_8_3 0
P_8_4 0
N_8_4 0
P_8_5 1
N_8_5 0
P_8_6 0
N_8_6 0
P_8_7 0
N_8_7 0
P_8_8 0
N_8_8 0
P_8_9 0
N_8_9 0
P_8_10 0
N_8_10 0
P_8_11 0
N_8_11 0
P_8_12 0
N_8_12 0
P_8_13 0
N_8_13 0
P_9_0 0
N_9_0 0
P_9_1 0
N_9_1 0
P_9_2 0
N_9_2 0
P_9_3 0
N_9_3 0
P_9_4 0
N_9_4 0
P_9_5 0
N_9_5 0
P_9_6 0
N_9_6 0
P_9_7 0
N_9_7 0
P_9_8 1
N_9_8 1
P_9_9 0
N_9_9 0
P_9_10 0
N_9_10 0
P_9_11 0
N_9_11 0
P_9_12 0
N_9_12 0
P_9_13 0
N_9_13 0
P_10_0 0
N_10_0 0
P_10_1 0
N_10_1 0
P_10_2 0
N_10_2 0
P_10_3 0
N_10_3 0
P_10_4 0
N_10_4 1
P_10_5 0
N_10_5 0
P_10_6 0
N_10_6 0
P_10_7 0
N_10_7 0
P_10_8 0
N_10_8 0
P_10_9 0
N_10_9 0
P_10_10 1
N_10_10 0
P_10_11 0
N_10_11 0
P_10_12 0
N_10_12 0
P_10_13 0
N_10_13 0
P_11_0 0
N_11_0 0
P_11_1 0
N_11_1 0
P_11_2 0
N_11_2 0
P_11_3 0
N_11_3 0
P_11_4 0
N_11_4 0
P_11_5 0
N_11_5 1
P_11_6 1
N_11_6 0
P_11_7 0
N_11_7 0
P_11_8 0
N_11_8 0
P_11_9 0
N_11_9 0
P_11_10 0
N_11_10 0
P_11_11 0
N_11_11 0
P_11_12 0
N_11_12 0
P_11_13 0
N_11_13 0
P_12_0 0
N_12_0 0
P_12_1 0
N_12_1 0
P_12_2 0
N_12_2 1
P_12_3 0
N_12_3 0
P_12_4 0
N_12_4 0
P_12_5 0
N_12_5 0
P_12_6 0
N_12_6 0
P_12_7 0
N_12_7 0
P_12_8 0
N_12_8 0
P_12_9 0
N_12_9 0
P_12_10 0
N_12_10 0
P_12_11 0
N_12_11 0
P_12_12 1
N_12_12 0
P_12_13 0
N_12_13 0
P_13_0 0
N_13_0 0
P_13_1 0
N_13_1 0
P_13_2 0
N_13_2 0
P_13_3 0
N_13_3 0
P_13_4 0
N_13_4 0
P_13_5 0
N_13_5 0
P_13_6 0
N_13_6 0
P_13_7 1
N_13_7 1
P_13_8 0
N_13_8 0
P_13_9 0
N_13_9 0
P_13_10 0
N_13_10 0
P_13_11 0
N_13_11 0
P_13_12 0
N_13_12 0
P_13_13 0
N_13_13 0
Pairs 14
Pair_0_0_0 0
Pair_0_0_1 0
Pair_0_0_2 0
Pair_0_0_3 0
Pair_0_0_4 0
Pair_0_0_5 0
Pair_0_0_6 0
Pair_0_0_7 0
Pair_0_0_8 0
Pair_0_0_9 0
Pair_0_0_10 0
Pair_0_0_11 0
Pair_0_0_12 0
Pair_0_0_13 0
Pair_0_6_0 0
Pair_0_6_1 0
Pair_0_6_2 0
Pair_0_6_3 0
Pair_0_6_4 0
Pair_0_6_5 0
Pair_0_6_6 0
Pair_0_6_7 0
Pair_0_6_8 0
Pair_0_6_9 0
Pair_0_6_10 0
Pair_0_6_11 0
Pair_0_6_12 0
Pair_0_6_13 1
Pair_1_1_0 0
Pair_1_1_1 0
Pair_1_1_2 0
Pair_1_1_3 1
Pair_1_1_4 0
Pair_1_1_5 0
Pair_1_1_6 0
Pair_1_1_7 0
Pair_1_1_8 0
Pair_1_1_9 0
Pair_1_1_10 0
Pair_1_1_11 0
Pair_1_1_12 0
Pair_1_1_13 0
Pair_1_4_0 0
Pair_1_4_1 0
Pair_1_4_2 0
Pair_1_4_3 0
Pair_1_4_4 0
Pair_1_4_5 0
Pair_1_4_6 0
Pair_1_4_7 0
Pair_1_4_8 0
Pair_1_4_9 0
Pair_1_4_10 0
Pair_1_4_11 0
Pair_1_4_12 0
Pair_1_4_13 0
Pair_1_7_0 0
Pair_1_7_1 0
Pair_1_7_2 0
Pair_1_7_3 0
Pair_1_7_4 0
Pair_1_7_5 0
Pair_1_7_6 0
Pair_1_7_7 0
Pair_1_7_8 0
Pair_1_7_9 0
Pair_1_7_10 0
Pair_1_7_11 0
Pair_1_7_12 0
Pair_1_7_13 0
Pair_1_12_0 0
Pair_1_12_1 0
Pair_1_12_2 0
Pair_1_12_3 0
Pair_1_12_4 0
Pair_1_12_5 0
Pair_1_12_6 0
Pair_1_12_7 0
Pair_1_12_8 0
Pair_1_12_9 0
Pair_1_12_10 0
Pair_1_12_11 0
Pair_1_12_12 0
Pair_1_12_13 0
Pair_2_2_0 0
Pair_2_2_1 0
Pair_2_2_2 0
Pair_2_2_3 0
Pair_2_2_4 0
Pair_2_2_5 0
Pair_2_2_6 0
Pair_2_2_7 0
Pair_2_2_8 0
Pair_2_2_9 0
Pair_2_2_10 0
Pair_2_2_11 0
Pair_2_2_12 0
Pair_2_2_13 0
Pair_2_5_0 0
Pair_2_5_1 0
Pair_2_5_2 0
Pair_2_5_3 0
Pair_2_5_4 0
Pair_2_5_5 0
Pair_2_5_6 0
Pair_2_5_7 0
Pair_2_5_8 0
Pair_2_5_9 0
Pair_2_5_10 0
Pair_2_5_11 0
Pair_2_5_12 0
Pair_2_5_13 0
Pair_2_8_0 0
Pair_2_8_1 1
Pair_2_8_2 0
Pair_2_8_3 0
Pair_2_8_4 0
Pair_2_8_5 0
Pair_2_8_6 0
Pair_2_8_7 0
Pair_2_8_8 0
Pair_2_8_9 0
Pair_2_8_10 0
Pair_2_8_11 0
Pair_2_8_12 0
Pair_2_8_13 0
Pair_2_11_0 0
Pair_2_11_1 0
Pair_2_11_2 0
Pair_2_11_3 0
Pair_2_11_4 0
Pair_2_11_5 0
Pair_2_11_6 0
Pair_2_11_7 0
Pair_2_11_8 0
Pair_2_11_9 0
Pair_2_11_10 0
Pair_2_11_11 0
Pair_2_11_12 0
Pair_2_11_13 0
Pair_3_3_0 0
Pair_3_3_1 0
Pair_3_3_2 0
Pair_3_3_3 0
Pair_3_3_4 0
Pair_3_3_5 0
Pair_3_3_6 0
Pair_3_3_7 0
Pair_3_3_8 0
Pair_3_3_9 0
Pair_3_3_10 0
Pair_3_3_11 0
Pair_3_3_12 0
Pair_3_3_13 0
Pair_3_9_0 0
Pair_3_9_1 0
Pair_3_9_2 0
Pair_3_9_3 0
Pair_3_9_4 0
Pair_3_9_5 0
Pair_3_9_6 0
Pair_3_9_7 0
Pair_3_9_8 0
Pair_3_9_9 0
Pair_3_9_10 0
Pair_3_9_11 0
Pair_3_9_12 0
Pair_3_9_13 0
Pair_3_10_0 0
Pair_3_10_1 0
Pair_3_10_2 0
Pair_3_10_3 0
Pair_3_10_4 1
Pair_3_10_5 0
Pair_3_10_6 0
Pair_3_10_7 0
Pair_3_10_8 0
Pair_3_10_9 0
Pair_3_10_10 0
Pair_3_10_11 0
Pair_3_10_12 0
Pair_3_10_13 0
Pair_4_1_0 0
Pair_4_1_1 0
Pair_4_1_2 0
Pair_4_1_3 0
Pair_4_1_4 0
Pair_4_1_5 0
Pair_4_1_6 0
Pair_4_1_7 0
Pair_4_1_8 0
Pair_4_1_9 0
Pair_4_1_10 0
Pair_4_1_11 0
Pair_4_1_12 0
Pair_4_1_13 0
Pair_4_4_0 0
Pair_4_4_1 0
Pair_4_4_2 0
Pair_4_4_3 0
Pair_4_4_4 0
Pair_4_4_5 0
Pair_4_4_6 0
Pair_4_4_7 0
Pair_4_4_8 0
Pair_4_4_9 0
Pair_4_4_10 0
Pair_4_4_11 0
Pair_4_4_12 0
Pair_4_4_13 0
Pair_4_7_0 0
Pair_4_7_1 0
Pair_4_7_2 0
Pair_4_7_3 0
Pair_4_7_4 0
Pair_4_7_5 0
Pair_4_7_6 0
Pair_4_7_7 0
Pair_4_7_8 0
Pair_4_7_9 1
Pair_4_7_10 0
Pair_4_7_11 0
Pair_4_7_12 0
Pair_4_7_13 0
Pair_4_12_0 0
Pair_4_12_1 0
Pair_4_12_2 0
Pair_4_12_3 0
Pair_4_12_4 0
Pair_4_12_5 0
Pair_4_12_6 0
Pair_4_12_7 0
Pair_4_12_8 0
Pair_4_12_9 0
Pair_4_12_10 0
Pair_4_12_11 0
Pair_4_12_12 0
Pair_4_12_13 0
Pair_5_2_0 1
Pair_5_2_1 0
Pair_5_2_2 0
Pair_5_2_3 0
Pair_5_2_4 0
Pair_5_2_5 0
Pair_5_2_6 0
Pair_5_2_7 0
Pair_5_2_8 0
Pair_5_2_9 0
Pair_5_2_10 0
Pair_5_2_11 0
Pair_5_2_12 0
Pair_5_2_13 0
Pair_5_5_0 0
Pair_5_5_1 0
Pair_5_5_2 0
Pair_5_5_3 0
Pair_5_5_4 0
Pair_5_5_5 0
Pair_5_5_6 0
Pair_5_5_7 0
Pair_5_5_8 0
Pair_5_5_9 0
Pair_5_5_10 0
Pair_5_5_11 0
Pair_5_5_12 0
Pair_5_5_13 0
Pair_5_8_0 0
Pair_5_8_1 0
Pair_5_8_2 0
Pair_5_8_3 0
Pair_5_8_4 0
Pair_5_8_5 0
Pair_5_8_6 0
Pair_5_8_7 0
Pair_5_8_8 0
Pair_5_8_9 0
Pair_5_8_10 0
Pair_5_8_11 0
Pair_5_8_12 0
Pair_5_8_13 0
Pair_5_11_0 0
Pair_5_11_1 0
Pair_5_11_2 0
Pair_5_11_3 0
Pair_5_11_4 0
Pair_5_11_5 0
Pair_5_11_6 0
Pair_5_11_7 0
Pair_5_11_8 0
Pair_5_11_9 0
Pair_5_11_10 0
Pair_5_11_11 0
Pair_5_11_12 0
Pair_5_11_13 0
Pair_6_0_0 0
Pair_6_0_1 0
Pair_6_0_2 0
Pair_6_0_3 0
Pair_6_0_4 0
Pair_6_0_5 0
Pair_6_0_6 0
Pair_6_0_7 0
Pair_6_0_8 0
Pair_6_0_9 0
Pair_6_0_10 0
Pair_6_0_11 1
Pair_6_0_12 0
Pair_6_0_13 0
Pair_6_6_0 0
Pair_6_6_1 0
Pair_6_6_2 0
Pair_6_6_3 0
Pair_6_6_4 0
Pair_6_6_5 0
Pair_6_6_6 0
Pair_6_6_7 0
Pair_6_6_8 0
Pair_6_6_9 0
Pair_6_6_10 0
Pair_6_6_11 0
Pair_6_6_12 0
Pair_6_6_13 0
Pair_7_1_0 0
Pair_7_1_1 0
Pair_7_1_2 0
Pair_7_1_3 0
Pair_7_1_4 0
Pair_7_1_5 0
Pair_7_1_6 0
Pair_7_1_7 0
Pair_7_1_8 0
Pair_7_1_9 0
Pair_7_1_10 0
Pair_7_1_11 0
Pair_7_1_12 0
Pair_7_1_13 0
Pair_7_4_0 0
Pair_7_4_1 0
Pair_7_4_2 0
Pair_7_4_3 0
Pair_7_4_4 0
Pair_7_4_5 0
Pair_7_4_6 0
Pair_7_4_7 0
Pair_7_4_8 0
Pair_7_4_9 0
Pair_7_4_10 0
Pair_7_4_11 0
Pair_7_4_12 0
Pair_7_4_13 0
Pair_7_7_0 0
Pair_7_7_1 0
Pair_7_7_2 0
Pair_7_7_3 0
Pair_7_7_4 0
Pair_7_7_5 0
Pair_7_7_6 0
Pair_7_7_7 0
Pair_7_7_8 0
Pair_7_7_9 0
Pair_7_7_10 0
Pair_7_7_11 0
Pair_7_7_12 0
Pair_7_7_13 0
Pair_7_12_0 0
Pair_7_12_1 0
Pair_7_12_2 1
Pair_7_12_3 0
Pair_7_12_4 0
Pair_7_12_5 0
Pair_7_12_6 0
Pair_7_12_7 0
Pair_7_12_8 0
Pair_7_12_9 0
Pair_7_12_10 0
Pair_7_12_11 0
Pair_7_12_12 0
Pair_7_12_13 0
Pair_8_2_0 0
Pair_8_2_1 0
Pair_8_2_2 0
Pair_8_2_3 0
Pair_8_2_4 0
Pair_8_2_5 0
Pair_8_2_6 0
Pair_8_2_7 0
Pair_8_2_8 0
Pair_8_2_9 0
Pair_8_2_10 0
Pair_8_2_11 0
Pair_8_2_12 0
Pair_8_2_13 0
Pair_8_5_0 0
Pair_8_5_1 0
Pair_8_5_2 0
Pair_8_5_3 0
Pair_8_5_4 0
Pair_8_5_5 0
Pair_8_5_6 0
Pair_8_5_7 0
Pair_8_5_8 0
Pair_8_5_9 0
Pair_8_5_10 0
Pair_8_5_11 0
Pair_8_5_12 0
Pair_8_5_13 0
Pair_8_8_0 0
Pair_8_8_1 0
Pair_8_8_2 0
Pair_8_8_3 0
Pair_8_8_4 0
Pair_8_8_5 0
Pair_8_8_6 0
Pair_8_8_7 0
Pair_8_8_8 0
Pair_8_8_9 0
Pair_8_8_10 0
Pair_8_8_11 0
Pair_8_8_12 0
Pair_8_8_13 0
Pair_8_11_0 0
Pair_8_11_1 0
Pair_8_11_2 0
Pair_8_11_3 0
Pair_8_11_4 0
Pair_8_11_5 1
Pair_8_11_6 0
Pair_8_11_7 0
Pair_8_11_8 0
Pair_8_11_9 0
Pair_8_11_10 0
Pair_8_11_11 0
Pair_8_11_12 0
Pair_8_11_13 0
Pair_9_3_0 0
Pair_9_3_1 0
Pair_9_3_2 0
Pair_9_3_3 0
Pair_9_3_4 0
Pair_9_3_5 0
Pair_9_3_6 0
Pair_9_3_7 0
Pair_9_3_8 0
Pair_9_3_9 0
Pair_9_3_10 0
Pair_9_3_11 0
Pair_9_3_12 0
Pair_9_3_13 0
Pair_9_9_0 0
Pair_9_9_1 0
Pair_9_9_2 0
Pair_9_9_3 0
Pair_9_9_4 0
Pair_9_9_5 0
Pair_9_9_6 0
Pair_9_9_7 0
Pair_9_9_8 1
Pair_9_9_9 0
Pair_9_9_10 0
Pair_9_9_11 0
Pair_9_9_12 0
Pair_9_9_13 0
Pair_9_10_0 0
Pair_9_10_1 0
Pair_9_10_2 0
Pair_9_10_3 0
Pair_9_10_4 0
Pair_9_10_5 0
Pair_9_10_6 0
Pair_9_10_7 0
Pair_9_10_8 0
Pair_9_10_9 0
Pair_9_10_10 0
Pair_9_10_11 0
Pair_9_10_12 0
Pair_9_10_13 0
Pair_10_3_0 0
Pair_10_3_1 0
Pair_10_3_2 0
Pair_10_3_3 0
Pair_10_3_4 0
Pair_10_3_5 0
Pair_10_3_6 0
Pair_10_3_7 0
Pair_10_3_8 0
Pair_10_3_9 0
Pair_10_3_10 1
Pair_10_3_11 0
Pair_10_3_12 0
Pair_10_3_13 0
Pair_10_9_0 0
Pair_10_9_1 0
Pair_10_9_2 0
Pair_10_9_3 0
Pair_10_9_4 0
Pair_10_9_5 0
Pair_10_9_6 0
Pair_10_9_7 0
Pair_10_9_8 0
Pair_10_9_9 0
Pair_10_9_10 0
Pair_10_9_11 0
Pair_10_9_12 0
Pair_10_9_13 0
Pair_10_10_0 0
Pair_10_10_1 0
Pair_10_10_2 0
Pair_10_10_3 0
Pair_10_10_4 0
Pair_10_10_5 0
Pair_10_10_6 0
Pair_10_10_7 0
Pair_10_10_8 0
Pair_10_10_9 0
Pair_10_10_10 0
Pair_10_10_11 0
Pair_10_10_12 0
Pair_10_10_13 0
Pair_11_2_0 0
Pair_11_2_1 0
Pair_11_2_2 0
Pair_11_2_3 0
Pair_11_2_4 0
Pair_11_2_5 0
Pair_11_2_6 0
Pair_11_2_7 0
Pair_11_2_8 0
Pair_11_2_9 0
Pair_11_2_10 0
Pair_11_2_11 0
Pair_11_2_12 0
Pair_11_2_13 0
Pair_11_5_0 0
Pair_11_5_1 0
Pair_11_5_2 0
Pair_11_5_3 0
Pair_11_5_4 0
Pair_11_5_5 0
Pair_11_5_6 1
Pair_11_5_7 0
Pair_11_5_8 0
Pair_11_5_9 0
Pair_11_5_10 0
Pair_11_5_11 0
Pair_11_5_12 0
Pair_11_5_13 0
Pair_11_8_0 0
Pair_11_8_1 0
Pair_11_8_2 0
Pair_11_8_3 0
Pair_11_8_4 0
Pair_11_8_5 0
Pair_11_8_6 0
Pair_11_8_7 0
Pair_11_8_8 0
Pair_11_8_9 0
Pair_11_8_10 0
Pair_11_8_11 0
Pair_11_8_12 0
Pair_11_8_13 0
Pair_11_11_0 0
Pair_11_11_1 0
Pair_11_11_2 0
Pair_11_11_3 0
Pair_11_11_4 0
Pair_11_11_5 0
Pair_11_11_6 0
Pair_11_11_7 0
Pair_11_11_8 0
Pair_11_11_9 0
Pair_11_11_10 0
Pair_11_11_11 0
Pair_11_11_12 0
Pair_11_11_13 0
Pair_12_1_0 0
Pair_12_1_1 0
Pair_12_1_2 0
Pair_12_1_3 0
Pair_12_1_4 0
Pair_12_1_5 0
Pair_12_1_6 0
Pair_12_1_7 0
Pair_12_1_8 0
Pair_12_1_9 0
Pair_12_1_10 0
Pair_12_1_11 0
Pair_12_1_12 0
Pair_12_1_13 0
Pair_12_4_0 0
Pair_12_4_1 0
Pair_12_4_2 0
Pair_12_4_3 0
Pair_12_4_4 0
Pair_12_4_5 0
Pair_12_4_6 0
Pair_12_4_7 0
Pair_12_4_8 0
Pair_12_4_9 0
Pair_12_4_10 0
Pair_12_4_11 0
Pair_12_4_12 1
Pair_12_4_13 0
Pair_12_7_0 0
Pair_12_7_1 0
Pair_12_7_2 0
Pair_12_7_3 0
Pair_12_7_4 0
Pair_12_7_5 0
Pair_12_7_6 0
Pair_12_7_7 0
Pair_12_7_8 0
Pair_12_7_9 0
Pair_12_7_10 0
Pair_12_7_11 0
Pair_12_7_12 0
Pair_12_7_13 0
Pair_12_12_0 0
Pair_12_12_1 0
Pair_12_12_2 0
Pair_12_12_3 0
Pair_12_12_4 0
Pair_12_12_5 0
Pair_12_12_6 0
Pair_12_12_7 0
Pair_12_12_8 0
Pair_12_12_9 0
Pair_12_12_10 0
Pair_12_12_11 0
Pair_12_12_12 0
Pair_12_12_13 0
Pair_13_13_0 0
Pair_13_13_1 0
Pair_13_13_2 0
Pair_13_13_3 0
Pair_13_13_4 0
Pair_13_13_5 0
Pair_13_13_6 0
Pair_13_13_7 1
Pair_13_13_8 0
Pair_13_13_9 0
Pair_13_13_10 0
Pair_13_13_11 0
Pair_13_13_12 0
Pair_13_13_13 0
